robust/generate/spp_dkp_Lefebvre_et_al_2026/src/shortest_path_3_2.kp
44
77

[10.71 1.34 9.56 4.63 4.61 7.82]

[77 11 77 60 43 49]
